c generated by sgen3tocnf
c nLits = 636
c actual nVars = 101
c Command: sgen3tocnf 025 0 23 25 101 4 2 0 /dev/null
p cnf 101 212
-25 -29 -41 0
-25 -29 -73 0
-25 -41 -73 0
-29 -41 -73 0
-9 -37 -81 0
-9 -37 -93 0
-9 -81 -93 0
-37 -81 -93 0
-26 -45 -57 0
-26 -45 -89 0
-26 -57 -89 0
-45 -57 -89 0
-33 -61 -82 0
-33 -61 -97 0
-33 -82 -97 0
-61 -82 -97 0
-27 -34 -49 0
-27 -34 -53 0
-27 -49 -53 0
-34 -49 -53 0
-10 -46 -65 0
-10 -46 -69 0
-10 -65 -69 0
-46 -65 -69 0
-5 -21 -54 0
-5 -21 -70 0
-5 -54 -70 0
-21 -54 -70 0
-11 -35 -58 0
-11 -35 -74 0
-11 -58 -74 0
-35 -58 -74 0
-13 -38 -59 0
-13 -38 -62 0
-13 -59 -62 0
-38 -59 -62 0
-14 -22 -47 0
-14 -22 -98 0
-14 -47 -98 0
-22 -47 -98 0
-15 -36 -77 0
-15 -36 -90 0
-15 -77 -90 0
-36 -77 -90 0
-23 -42 -63 0
-23 -42 -66 0
-23 -63 -66 0
-42 -63 -66 0
-6 -28 -78 0
-6 -28 -94 0
-6 -78 -94 0
-28 -78 -94 0
-1 -64 -75 0
-1 -64 -95 0
-1 -75 -95 0
-64 -75 -95 0
-17 -39 -50 0
-17 -39 -67 0
-17 -50 -67 0
-39 -50 -67 0
-30 -60 -79 0
-30 -60 -83 0
-30 -79 -83 0
-60 -79 -83 0
-55 -84 -85 0
-55 -84 -91 0
-55 -85 -91 0
-84 -85 -91 0
-7 -31 -68 0
-7 -31 -86 0
-7 -68 -86 0
-31 -68 -86 0
-2 -43 -48 0
-2 -43 -56 0
-2 -48 -56 0
-43 -48 -56 0
-18 -76 -87 0
-18 -76 -99 0
-18 -87 -99 0
-76 -87 -99 0
-3 -12 -16 0
-3 -12 -19 0
-3 -16 -19 0
-12 -16 -19 0
-24 -51 -80 0
-24 -51 -88 0
-24 -80 -88 0
-51 -80 -88 0
-44 -52 -71 0
-44 -52 -92 0
-44 -71 -92 0
-52 -71 -92 0
-20 -32 -72 0
-20 -32 -96 0
-20 -72 -96 0
-32 -72 -96 0
-4 -8 -40 0
-4 -8 -100 0
-4 -8 -101 0
-4 -40 -100 0
-4 -40 -101 0
-4 -100 -101 0
-8 -40 -100 0
-8 -40 -101 0
-8 -100 -101 0
-40 -100 -101 0
1 2 3 0
1 2 4 0
1 3 4 0
2 3 4 0
5 6 7 0
5 6 8 0
5 7 8 0
6 7 8 0
9 10 11 0
9 10 12 0
9 11 12 0
10 11 12 0
13 14 15 0
13 14 16 0
13 15 16 0
14 15 16 0
17 18 19 0
17 18 20 0
17 19 20 0
18 19 20 0
21 22 23 0
21 22 24 0
21 23 24 0
22 23 24 0
25 26 27 0
25 26 28 0
25 27 28 0
26 27 28 0
29 30 31 0
29 30 32 0
29 31 32 0
30 31 32 0
33 34 35 0
33 34 36 0
33 35 36 0
34 35 36 0
37 38 39 0
37 38 40 0
37 39 40 0
38 39 40 0
41 42 43 0
41 42 44 0
41 43 44 0
42 43 44 0
45 46 47 0
45 46 48 0
45 47 48 0
46 47 48 0
49 50 51 0
49 50 52 0
49 51 52 0
50 51 52 0
53 54 55 0
53 54 56 0
53 55 56 0
54 55 56 0
57 58 59 0
57 58 60 0
57 59 60 0
58 59 60 0
61 62 63 0
61 62 64 0
61 63 64 0
62 63 64 0
65 66 67 0
65 66 68 0
65 67 68 0
66 67 68 0
69 70 71 0
69 70 72 0
69 71 72 0
70 71 72 0
73 74 75 0
73 74 76 0
73 75 76 0
74 75 76 0
77 78 79 0
77 78 80 0
77 79 80 0
78 79 80 0
81 82 83 0
81 82 84 0
81 83 84 0
82 83 84 0
85 86 87 0
85 86 88 0
85 87 88 0
86 87 88 0
89 90 91 0
89 90 92 0
89 90 101 0
89 91 92 0
89 91 101 0
89 92 101 0
90 91 92 0
90 91 101 0
90 92 101 0
91 92 101 0
93 94 95 0
93 94 96 0
93 95 96 0
94 95 96 0
97 98 99 0
97 98 100 0
97 99 100 0
98 99 100 0
